
Gurobi 12.0.3 (linux64) logging started Fri Mar 27 05:30:05 2026

Set parameter LogFile to value "/home/solar-wind/WT_Solar_results_bigM100000_thread4/case24_ieee_rts_theta0.12_epsilon0.08_gurobi_seed40000_num_gen38_N_WDR300_load_scaling_factor1_EIFICA_T24_num_Solar5_num_WT10.txt"
Gurobi Optimizer version 12.0.3 build v12.0.3rc0 (linux64 - "Ubuntu 22.04.5 LTS")

CPU model: Intel(R) Xeon(R) Platinum 8378A CPU @ 3.00GHz, instruction set [SSE2|AVX|AVX2|AVX512]
Thread count: 32 physical cores, 64 logical processors, using up to 4 threads

Non-default parameters:
TimeLimit  14400
MIPGap  0.001
Seed  40000
Threads  4

Academic license 2721591 - for non-commercial use only - registered to fa___@mails.neu.edu.cn
Optimize a model with 835364 rows, 2125 columns and 75302440 nonzeros
Model fingerprint: 0xd158aa90
Model has 912 quadratic objective terms
Coefficient statistics:
  Matrix range     [3e-07, 7e+01]
  Objective range  [2e+01, 6e+01]
  QObjective range [4e-03, 2e-02]
  Bounds range     [0e+00, 0e+00]
  RHS range        [5e-02, 1e+03]
Presolve removed 608784 rows and 0 columns (presolve time = 6s)...
Presolve removed 609658 rows and 0 columns
Presolve time: 7.44s
Presolved: 225706 rows, 2999 columns, 5216490 nonzeros
Presolved model has 912 quadratic objective terms
Elapsed ordering time = 20s
Elapsed ordering time = 20s
Ordering time: 40.21s
Elapsed ordering time = 40s
Elapsed ordering time = 48s
Elapsed ordering time = 50s
Elapsed ordering time = 56s
Elapsed ordering time = 60s
Elapsed ordering time = 65s
Elapsed ordering time = 66s
Elapsed ordering time = 73s
Elapsed ordering time = 75s
Elapsed ordering time = 81s
Elapsed ordering time = 85s
Ordering time: 89.64s

Barrier statistics:
 Dense cols : 1257
 AA' NZ     : 2.836e+08
 Factor NZ  : 1.574e+09 (roughly 13.0 GB of memory)
 Factor Ops : 4.229e+13 (roughly 230 seconds per iteration)
 Threads    : 4

                  Objective                Residual
Iter       Primal          Dual         Primal    Dual     Compl     Time
   0   5.83231661e+08 -3.28342070e+08  3.81e+04 1.00e+03  9.92e+05   224s
   1   5.46629711e+08 -3.03091756e+08  3.66e+04 9.58e+02  9.51e+05   224s
   2   5.39846776e+08 -3.68432590e+08  3.62e+04 9.50e+02  9.46e+05   225s
   3   5.10063698e+08 -4.09059391e+08  3.49e+04 9.14e+02  9.24e+05   225s
   4   4.49287763e+08 -3.97962205e+08  3.21e+04 8.40e+02  8.50e+05   226s
   5   3.94150448e+08 -4.64468450e+08  2.95e+04 7.67e+02  8.00e+05   226s
   6   3.55591283e+08 -4.74267305e+08  2.75e+04 7.14e+02  7.46e+05   226s
   7   3.23074058e+08 -5.02960377e+08  2.58e+04 6.68e+02  7.14e+05   227s
   8   2.81499062e+08 -5.18869294e+08  2.36e+04 6.05e+02  6.48e+05   227s
   9   2.51484606e+08 -5.31415404e+08  2.16e+04 5.58e+02  5.98e+05   227s
  10   2.26087792e+08 -5.47095032e+08  2.00e+04 5.17e+02  5.55e+05   227s
  11   2.04539224e+08 -5.62661802e+08  1.86e+04 4.80e+02  5.16e+05   227s
  12   1.85941155e+08 -5.79527442e+08  1.74e+04 4.47e+02  4.81e+05   228s
  13   1.66082546e+08 -5.94912091e+08  1.60e+04 4.09e+02  4.41e+05   228s
  14   1.50901311e+08 -6.08529171e+08  1.49e+04 3.80e+02  4.10e+05   228s
  15   1.38212754e+08 -6.23023039e+08  1.39e+04 3.54e+02  3.83e+05   228s
  16   1.24394535e+08 -6.40890561e+08  1.28e+04 3.25e+02  3.52e+05   228s
  17   1.12494824e+08 -6.56094396e+08  1.19e+04 2.99e+02  3.24e+05   229s
  18   9.93322833e+07 -6.77766486e+08  1.08e+04 2.70e+02  2.93e+05   229s
  19   8.85080027e+07 -6.96602455e+08  9.82e+03 2.44e+02  2.66e+05   229s
  20   7.90638107e+07 -7.17514263e+08  8.97e+03 2.22e+02  2.42e+05   229s
  21   6.92637176e+07 -7.40238901e+08  8.06e+03 1.98e+02  2.17e+05   229s
  22   6.13227528e+07 -7.58622560e+08  7.29e+03 1.78e+02  1.95e+05   230s
  23   5.50427175e+07 -7.75261617e+08  6.66e+03 1.62e+02  1.78e+05   230s
  24   4.70522463e+07 -7.95457493e+08  5.82e+03 1.41e+02  1.55e+05   230s
  25   3.91267344e+07 -8.15327849e+08  4.94e+03 1.19e+02  1.32e+05   230s
  26   3.37948967e+07 -8.28315135e+08  4.34e+03 1.04e+02  1.15e+05   231s
  27   2.79030161e+07 -8.39896749e+08  3.64e+03 8.70e+01  9.70e+04   231s
  28   1.95242636e+07 -8.47177587e+08  3.04e+03 6.18e+01  7.01e+04   231s
  29   1.55740426e+07 -8.39647721e+08  2.71e+03 4.96e+01  5.67e+04   231s
  30   1.17465018e+07 -8.21132149e+08  2.38e+03 3.75e+01  4.34e+04   231s
  31   9.46849690e+06 -7.96693470e+08  2.09e+03 3.01e+01  3.51e+04   231s
  32   6.32626181e+06 -7.42686984e+08  1.55e+03 1.97e+01  2.51e+04   232s
  33   5.35502538e+06 -7.12959085e+08  1.39e+03 1.65e+01  2.11e+04   232s
  34   4.52457123e+06 -6.76954368e+08  1.20e+03 1.37e+01  1.77e+04   232s
  35   3.86664964e+06 -6.42199852e+08  1.05e+03 1.15e+01  1.49e+04   232s
  36   3.09419461e+06 -5.91710244e+08  8.45e+02 8.94e+00  1.17e+04   232s
  37   2.67426225e+06 -5.56132414e+08  7.23e+02 7.55e+00  9.95e+03   233s
  38   2.26943340e+06 -5.40460758e+08  5.91e+02 6.20e+00  8.70e+03   233s
  39   1.97863136e+06 -5.02816948e+08  5.03e+02 5.21e+00  7.36e+03   233s
  40   1.65651621e+06 -4.53476607e+08  3.94e+02 4.10e+00  5.85e+03   233s
  41   1.33428724e+06 -4.37515560e+08  2.72e+02 2.93e+00  4.69e+03   234s
  42   1.04864970e+06 -3.72290174e+08  1.67e+02 1.84e+00  3.23e+03   234s
  43   8.92407153e+05 -2.99840438e+08  1.09e+02 1.19e+00  2.17e+03   234s
  44   8.00885975e+05 -2.53632205e+08  7.18e+01 7.81e-01  1.61e+03   234s
  45   7.42911043e+05 -2.13970841e+08  4.83e+01 5.23e-01  1.23e+03   235s
  46   7.21559400e+05 -1.89631129e+08  3.79e+01 4.11e-01  1.04e+03   235s
  47   6.98973895e+05 -1.68412611e+08  2.64e+01 2.85e-01  8.74e+02   236s
  48   6.87243884e+05 -1.43955230e+08  1.99e+01 2.15e-01  7.22e+02   237s
  49   6.82586616e+05 -1.29001352e+08  1.64e+01 1.77e-01  6.35e+02   238s
  50   6.78729038e+05 -1.13423988e+08  1.29e+01 1.39e-01  5.48e+02   239s
  51   6.77728618e+05 -1.06329867e+08  1.14e+01 1.24e-01  5.10e+02   240s
  52   6.77321039e+05 -1.02460195e+08  1.07e+01 1.16e-01  4.90e+02   241s
  53   6.76721497e+05 -9.44030058e+07  9.24e+00 9.99e-02  4.49e+02   242s
  54   6.76552389e+05 -7.09868689e+07  6.83e+00 7.36e-02  3.35e+02   244s
  55   6.76376327e+05 -6.51762806e+07  6.03e+00 6.50e-02  3.11e+02   250s
  56   6.76804135e+05 -5.78469425e+07  5.33e+00 5.73e-02  2.75e+02   254s
  57   6.75638392e+05 -4.79451141e+07  3.50e+00 3.33e-02  2.21e+02   255s
  58   6.76024659e+05 -3.02013847e+07  3.55e+00 1.87e-02  1.38e+02   257s
  59   6.75023264e+05 -1.55867596e+07  2.21e+00 8.56e-03  7.17e+01   261s
  60   6.72572232e+05 -4.92632312e+06  1.59e+00 2.32e-03  2.45e+01   268s
  61   6.64341833e+05 -4.36042295e+05  1.47e-01 2.49e-04  4.80e+00   279s
  62   6.27678329e+05  3.94037733e+05  2.05e-02 6.37e-02  1.02e+00   591s
  63   6.05764125e+05  5.29714907e+05  5.63e-03 1.76e-02  3.31e-01  1297s
  64   5.95364952e+05  5.66909926e+05  1.11e-03 3.54e-03  1.24e-01  2505s
  65   5.92478385e+05  5.75684520e+05  2.73e-04 8.68e-04  7.32e-02  2669s
  66   5.90816498e+05  5.83138211e+05  4.42e-05 1.40e-04  3.34e-02  2833s
  67   5.89948709e+05  5.87492768e+05  5.53e-06 1.76e-05  1.07e-02  2997s
  68   5.89647732e+05  5.88930425e+05  5.91e-07 1.88e-06  3.12e-03  3161s
  69   5.89586459e+05  5.89208892e+05  5.05e-08 1.60e-07  1.64e-03  3326s
  70   5.89565036e+05  5.89313668e+05  3.20e-08 1.02e-07  1.09e-03  3486s
  71   5.89547438e+05  5.89399483e+05  1.31e-08 4.14e-08  6.44e-04  3649s
  72   5.89533313e+05  5.89467683e+05  6.37e-10 6.52e-10  2.86e-04  3807s
  73   5.89523388e+05  5.89516492e+05  1.28e-09 3.41e-12  3.00e-05  3975s
  74   5.89522654e+05  5.89520097e+05  7.45e-09 2.85e-11  1.11e-05  4135s
  75   5.89522220e+05  5.89522216e+05  1.88e-09 4.48e-11  1.49e-08  4294s
  76   5.89522219e+05  5.89522219e+05  1.62e-07 2.23e-10  2.80e-09  4848s

Barrier solved model in 76 iterations and 4848.50 seconds (3292.57 work units)
Optimal objective 5.89522219e+05

